Route #1: 14 3 108 38 46 5 91
Route #2: 89 45 34 106 42 97 92 20
Route #3: 79 32 105 74 16 70 90 1
Route #4: 23 13 57 48 47 40 8
Route #5: 62 100 10 86 73 35 72 63
Route #6: 82 107 7 37 94 81 44 29
Route #7: 78 67 98 66 53 15 11 85 51
Route #8: 6 77 87 26 24 103 25 18 109
Route #9: 69 84 4 101 33 9 102 56 30 80
Route #10: 2 43 99 65 27 17 95 31
Route #11: 52 50 39 28 68 41 12 58 19
Route #12: 54 21 75 88 96 59 36 64
Route #13: 55 76 83 22 61 60 104 93 71
Route #14: 49
Cost 16689
